90
2845
45
0 1
0 2
0 3
0 5
0 8
0 9
0 11
0 12
0 14
0 15
0 17
0 18
0 19
0 20
0 21
0 22
0 24
0 25
0 27
0 28
0 29
0 30
0 31
0 32
0 34
0 35
0 36
0 37
0 39
0 40
0 41
0 42
0 43
0 44
0 45
0 47
0 48
0 49
0 50
0 52
0 53
0 54
0 55
0 58
0 59
0 60
0 61
0 62
0 65
0 66
0 67
0 69
0 70
0 71
0 72
0 73
0 74
0 75
0 77
0 78
0 79
0 80
0 81
0 82
0 83
0 84
0 85
0 86
0 87
0 88
0 89
1 2
1 4
1 5
1 7
1 8
1 10
1 12
1 14
1 17
1 18
1 19
1 20
1 21
1 22
1 23
1 25
1 27
1 28
1 30
1 31
1 33
1 34
1 35
1 38
1 39
1 40
1 41
1 42
1 44
1 45
1 46
1 47
1 48
1 49
1 50
1 51
1 52
1 54
1 55
1 56
1 57
1 58
1 60
1 61
1 62
1 65
1 67
1 68
1 71
1 75
1 78
1 79
1 81
1 83
1 84
1 85
1 89
2 3
2 5
2 6
2 7
2 8
2 10
2 11
2 12
2 13
2 15
2 16
2 17
2 18
2 19
2 20
2 22
2 23
2 25
2 26
2 27
2 28
2 29
2 31
2 33
2 35
2 36
2 37
2 38
2 40
2 44
2 45
2 47
2 48
2 51
2 52
2 53
2 54
2 55
2 56
2 57
2 58
2 59
2 62
2 63
2 64
2 65
2 66
2 67
2 68
2 69
2 70
2 71
2 72
2 73
2 74
2 75
2 77
2 78
2 79
2 81
2 82
2 83
2 84
2 87
2 88
2 89
3 5
3 6
3 7
3 8
3 9
3 11
3 12
3 13
3 15
3 16
3 17
3 18
3 20
3 21
3 22
3 24
3 26
3 27
3 28
3 29
3 30
3 31
3 34
3 35
3 36
3 37
3 38
3 39
3 41
3 43
3 44
3 45
3 46
3 48
3 49
3 50
3 51
3 52
3 53
3 55
3 56
3 57
3 58
3 59
3 60
3 62
3 63
3 64
3 65
3 66
3 67
3 69
3 70
3 72
3 73
3 75
3 77
3 78
3 79
3 80
3 81
3 84
3 85
3 86
3 87
3 88
3 89
4 5
4 7
4 8
4 9
4 14
4 16
4 17
4 18
4 19
4 21
4 23
4 24
4 28
4 30
4 31
4 33
4 34
4 35
4 36
4 37
4 38
4 39
4 41
4 42
4 43
4 44
4 45
4 46
4 47
4 48
4 49
4 51
4 52
4 56
4 60
4 61
4 62
4 63
4 64
4 66
4 67
4 68
4 69
4 70
4 71
4 73
4 74
4 75
4 76
4 77
4 78
4 79
4 80
4 81
4 82
4 83
4 84
4 85
4 86
4 87
4 88
4 89
5 7
5 8
5 9
5 12
5 13
5 14
5 15
5 16
5 17
5 18
5 19
5 20
5 21
5 22
5 23
5 24
5 25
5 26
5 27
5 29
5 31
5 33
5 34
5 35
5 36
5 38
5 40
5 41
5 42
5 43
5 44
5 45
5 46
5 49
5 50
5 51
5 52
5 53
5 55
5 56
5 59
5 60
5 61
5 62
5 63
5 64
5 65
5 66
5 67
5 68
5 70
5 71
5 72
5 75
5 76
5 77
5 78
5 79
5 80
5 82
5 85
5 87
5 88
5 89
6 7
6 9
6 12
6 13
6 14
6 18
6 19
6 20
6 21
6 22
6 23
6 24
6 26
6 28
6 29
6 30
6 32
6 34
6 35
6 36
6 37
6 38
6 39
6 42
6 43
6 45
6 46
6 47
6 48
6 49
6 50
6 52
6 54
6 55
6 56
6 60
6 61
6 62
6 63
6 64
6 65
6 66
6 67
6 68
6 69
6 72
6 74
6 75
6 76
6 78
6 79
6 81
6 84
6 85
6 87
6 88
6 89
7 9
7 10
7 12
7 13
7 14
7 17
7 18
7 19
7 20
7 22
7 23
7 24
7 25
7 26
7 27
7 28
7 30
7 33
7 34
7 35
7 36
7 39
7 41
7 42
7 43
7 44
7 46
7 48
7 49
7 50
7 52
7 53
7 55
7 58
7 61
7 63
7 64
7 66
7 67
7 68
7 71
7 72
7 73
7 74
7 75
7 77
7 79
7 80
7 81
7 82
7 83
7 85
7 86
7 87
7 88
7 89
8 11
8 12
8 13
8 14
8 15
8 16
8 18
8 19
8 20
8 21
8 24
8 26
8 27
8 28
8 29
8 30
8 34
8 35
8 37
8 38
8 39
8 40
8 41
8 42
8 43
8 45
8 48
8 49
8 50
8 53
8 54
8 55
8 56
8 59
8 60
8 62
8 63
8 64
8 65
8 66
8 69
8 70
8 72
8 73
8 74
8 75
8 79
8 80
8 81
8 82
8 83
8 84
8 85
8 86
8 89
9 10
9 11
9 12
9 13
9 14
9 16
9 17
9 18
9 19
9 20
9 21
9 25
9 26
9 29
9 30
9 31
9 32
9 33
9 34
9 35
9 36
9 37
9 38
9 39
9 40
9 42
9 43
9 44
9 46
9 47
9 48
9 49
9 50
9 51
9 52
9 53
9 54
9 55
9 57
9 58
9 59
9 60
9 61
9 62
9 63
9 64
9 66
9 69
9 70
9 72
9 73
9 74
9 75
9 76
9 77
9 78
9 79
9 82
9 83
9 84
9 85
9 87
9 88
10 11
10 13
10 15
10 16
10 17
10 18
10 19
10 20
10 21
10 22
10 23
10 24
10 25
10 26
10 28
10 29
10 31
10 33
10 34
10 36
10 38
10 39
10 41
10 42
10 43
10 44
10 45
10 46
10 48
10 49
10 51
10 53
10 54
10 55
10 56
10 58
10 62
10 63
10 66
10 67
10 69
10 70
10 71
10 72
10 74
10 75
10 77
10 78
10 80
10 81
10 83
10 84
10 85
10 86
10 87
10 88
11 12
11 13
11 14
11 15
11 16
11 17
11 18
11 19
11 20
11 22
11 23
11 24
11 25
11 26
11 27
11 28
11 29
11 30
11 31
11 32
11 33
11 34
11 35
11 37
11 38
11 39
11 40
11 41
11 42
11 43
11 44
11 45
11 47
11 49
11 50
11 51
11 52
11 54
11 55
11 56
11 57
11 58
11 59
11 60
11 61
11 64
11 65
11 67
11 69
11 70
11 71
11 76
11 79
11 80
11 81
11 82
11 83
11 84
11 85
11 87
11 88
11 89
12 13
12 15
12 18
12 19
12 20
12 21
12 22
12 23
12 24
12 25
12 26
12 28
12 30
12 31
12 32
12 35
12 36
12 37
12 39
12 40
12 41
12 42
12 44
12 47
12 48
12 50
12 51
12 53
12 54
12 56
12 57
12 58
12 59
12 61
12 63
12 64
12 65
12 66
12 67
12 68
12 71
12 72
12 76
12 78
12 81
12 83
12 84
12 85
12 86
12 87
12 88
13 14
13 15
13 16
13 17
13 18
13 20
13 23
13 24
13 25
13 29
13 30
13 31
13 32
13 33
13 35
13 36
13 37
13 39
13 40
13 41
13 42
13 43
13 44
13 45
13 46
13 47
13 48
13 49
13 51
13 52
13 53
13 54
13 56
13 57
13 59
13 63
13 64
13 65
13 66
13 67
13 68
13 69
13 70
13 71
13 73
13 74
13 76
13 78
13 79
13 80
13 82
13 83
13 84
13 87
13 88
14 16
14 17
14 18
14 19
14 20
14 21
14 22
14 23
14 24
14 25
14 26
14 28
14 33
14 34
14 36
14 37
14 38
14 39
14 40
14 41
14 42
14 43
14 44
14 45
14 46
14 48
14 50
14 51
14 52
14 53
14 54
14 57
14 58
14 60
14 63
14 64
14 65
14 66
14 67
14 68
14 69
14 70
14 72
14 73
14 74
14 75
14 77
14 78
14 79
14 80
14 82
14 83
14 84
14 85
14 86
14 87
14 89
15 18
15 19
15 21
15 22
15 23
15 24
15 25
15 26
15 27
15 29
15 31
15 32
15 35
15 37
15 38
15 39
15 42
15 43
15 45
15 46
15 47
15 48
15 50
15 51
15 53
15 54
15 55
15 56
15 57
15 59
15 61
15 62
15 63
15 66
15 67
15 68
15 72
15 73
15 74
15 75
15 78
15 81
15 83
15 84
15 87
15 89
16 20
16 23
16 24
16 26
16 31
16 33
16 34
16 36
16 37
16 38
16 40
16 41
16 42
16 44
16 45
16 49
16 51
16 52
16 54
16 56
16 57
16 58
16 59
16 61
16 62
16 64
16 65
16 66
16 69
16 71
16 72
16 73
16 75
16 76
16 77
16 79
16 80
16 82
16 83
16 84
16 85
16 87
16 88
16 89
17 18
17 20
17 21
17 22
17 23
17 24
17 25
17 26
17 27
17 29
17 30
17 32
17 35
17 36
17 37
17 39
17 40
17 41
17 42
17 43
17 45
17 47
17 48
17 49
17 50
17 52
17 53
17 54
17 55
17 56
17 58
17 59
17 61
17 62
17 63
17 64
17 67
17 68
17 69
17 70
17 71
17 74
17 75
17 76
17 77
17 78
17 80
17 81
17 83
17 85
17 87
17 88
17 89
18 19
18 21
18 22
18 23
18 24
18 26
18 27
18 29
18 30
18 31
18 32
18 33
18 34
18 35
18 37
18 38
18 39
18 40
18 41
18 42
18 44
18 45
18 47
18 48
18 50
18 52
18 53
18 54
18 55
18 56
18 58
18 59
18 60
18 61
18 62
18 63
18 65
18 67
18 68
18 69
18 70
18 71
18 72
18 73
18 75
18 76
18 77
18 79
18 81
18 82
18 83
18 86
18 87
18 88
19 20
19 21
19 22
19 23
19 25
19 27
19 28
19 30
19 33
19 34
19 35
19 37
19 38
19 40
19 41
19 42
19 43
19 44
19 45
19 46
19 47
19 48
19 49
19 50
19 53
19 54
19 55
19 56
19 57
19 58
19 60
19 61
19 64
19 65
19 67
19 68
19 69
19 70
19 71
19 72
19 73
19 74
19 75
19 76
19 77
19 78
19 80
19 81
19 82
19 83
19 84
19 85
19 86
19 89
20 21
20 22
20 23
20 25
20 27
20 28
20 29
20 30
20 31
20 33
20 34
20 35
20 37
20 41
20 42
20 43
20 44
20 46
20 47
20 49
20 51
20 53
20 54
20 55
20 57
20 58
20 60
20 63
20 64
20 65
20 66
20 67
20 68
20 69
20 70
20 72
20 73
20 75
20 76
20 77
20 79
20 81
20 83
20 84
20 85
20 86
20 87
20 89
21 22
21 23
21 24
21 26
21 27
21 28
21 31
21 34
21 36
21 37
21 41
21 42
21 43
21 44
21 45
21 46
21 47
21 48
21 49
21 50
21 52
21 53
21 54
21 55
21 56
21 57
21 58
21 60
21 62
21 63
21 64
21 66
21 67
21 68
21 69
21 71
21 72
21 73
21 75
21 76
21 79
21 80
21 82
21 84
21 87
21 88
21 89
22 23
22 25
22 26
22 27
22 28
22 29
22 30
22 32
22 33
22 35
22 36
22 37
22 38
22 39
22 40
22 41
22 44
22 45
22 47
22 48
22 49
22 50
22 53
22 54
22 56
22 57
22 58
22 59
22 60
22 61
22 62
22 63
22 64
22 65
22 66
22 67
22 68
22 69
22 70
22 71
22 72
22 73
22 74
22 75
22 78
22 79
22 80
22 81
22 82
22 84
22 85
22 86
22 89
23 26
23 27
23 28
23 29
23 31
23 32
23 33
23 34
23 35
23 37
23 38
23 39
23 41
23 42
23 44
23 45
23 48
23 49
23 51
23 53
23 54
23 55
23 58
23 59
23 60
23 61
23 62
23 63
23 67
23 71
23 73
23 76
23 77
23 79
23 80
23 81
23 84
23 85
23 86
23 88
23 89
24 25
24 26
24 27
24 28
24 29
24 31
24 32
24 33
24 35
24 36
24 38
24 39
24 40
24 41
24 42
24 44
24 47
24 48
24 49
24 50
24 51
24 52
24 53
24 54
24 55
24 56
24 57
24 58
24 59
24 60
24 62
24 63
24 64
24 65
24 67
24 68
24 69
24 71
24 72
24 73
24 74
24 75
24 76
24 77
24 79
24 81
24 83
24 84
24 86
24 87
24 88
25 26
25 27
25 28
25 29
25 30
25 31
25 34
25 35
25 36
25 37
25 38
25 39
25 40
25 41
25 42
25 44
25 46
25 47
25 51
25 52
25 53
25 54
25 55
25 56
25 57
25 58
25 59
25 60
25 62
25 64
25 65
25 66
25 68
25 69
25 70
25 72
25 75
25 78
25 79
25 83
25 84
25 89
26 27
26 28
26 29
26 30
26 32
26 33
26 35
26 37
26 38
26 39
26 40
26 42
26 43
26 44
26 45
26 46
26 47
26 48
26 50
26 52
26 53
26 54
26 56
26 57
26 58
26 59
26 61
26 62
26 63
26 64
26 65
26 66
26 68
26 69
26 72
26 73
26 74
26 75
26 76
26 78
26 79
26 81
26 83
26 84
26 87
26 89
27 28
27 29
27 30
27 32
27 34
27 36
27 37
27 38
27 39
27 40
27 45
27 47
27 48
27 50
27 51
27 52
27 54
27 55
27 56
27 58
27 59
27 60
27 63
27 64
27 66
27 67
27 68
27 69
27 71
27 72
27 74
27 78
27 81
27 82
27 83
27 87
27 89
28 29
28 30
28 31
28 32
28 33
28 34
28 36
28 37
28 38
28 39
28 41
28 42
28 43
28 48
28 49
28 50
28 51
28 53
28 54
28 55
28 56
28 58
28 59
28 60
28 61
28 62
28 63
28 64
28 65
28 66
28 67
28 68
28 69
28 71
28 72
28 73
28 74
28 76
28 77
28 78
28 79
28 80
28 81
28 82
28 85
28 86
28 88
29 31
29 32
29 34
29 35
29 36
29 39
29 40
29 41
29 42
29 43
29 44
29 45
29 46
29 48
29 49
29 51
29 53
29 54
29 55
29 56
29 58
29 59
29 60
29 61
29 64
29 65
29 66
29 67
29 68
29 69
29 70
29 71
29 72
29 73
29 74
29 75
29 77
29 78
29 79
29 81
29 83
29 84
29 87
29 89
30 31
30 32
30 33
30 34
30 35
30 36
30 38
30 39
30 40
30 42
30 43
30 44
30 46
30 48
30 50
30 51
30 52
30 53
30 55
30 56
30 59
30 61
30 62
30 64
30 65
30 66
30 67
30 70
30 72
30 74
30 75
30 77
30 79
30 80
30 81
30 83
30 84
30 85
30 86
30 87
30 88
31 32
31 34
31 35
31 37
31 39
31 40
31 41
31 42
31 44
31 46
31 47
31 48
31 49
31 50
31 51
31 52
31 53
31 54
31 55
31 57
31 60
31 62
31 63
31 65
31 66
31 67
31 68
31 71
31 72
31 73
31 74
31 75
31 76
31 77
31 78
31 79
31 82
31 84
31 85
31 86
31 88
32 35
32 36
32 41
32 42
32 43
32 44
32 46
32 47
32 48
32 49
32 50
32 51
32 52
32 53
32 55
32 56
32 58
32 61
32 62
32 63
32 67
32 68
32 71
32 72
32 73
32 74
32 75
32 77
32 78
32 79
32 80
32 81
32 84
32 85
32 86
32 87
32 88
32 89
33 34
33 35
33 36
33 37
33 38
33 39
33 41
33 42
33 43
33 44
33 45
33 46
33 47
33 48
33 50
33 51
33 52
33 53
33 54
33 55
33 56
33 57
33 59
33 61
33 62
33 63
33 64
33 66
33 68
33 70
33 72
33 73
33 75
33 76
33 78
33 79
33 81
33 82
33 83
33 84
33 85
33 86
33 88
33 89
34 35
34 38
34 39
34 42
34 43
34 45
34 47
34 48
34 50
34 51
34 53
34 54
34 56
34 57
34 58
34 59
34 60
34 62
34 63
34 67
34 68
34 70
34 71
34 74
34 75
34 76
34 77
34 78
34 79
34 81
34 82
34 83
34 84
34 85
34 87
34 88
34 89
35 36
35 38
35 40
35 41
35 44
35 46
35 47
35 48
35 49
35 50
35 52
35 53
35 55
35 56
35 57
35 58
35 60
35 61
35 62
35 65
35 66
35 69
35 72
35 73
35 77
35 78
35 80
35 81
35 83
35 84
35 85
35 86
36 37
36 38
36 39
36 40
36 41
36 42
36 43
36 44
36 47
36 48
36 50
36 51
36 53
36 54
36 57
36 58
36 59
36 60
36 61
36 62
36 63
36 64
36 66
36 68
36 69
36 70
36 72
36 74
36 75
36 77
36 78
36 80
36 81
36 83
36 84
36 86
36 87
36 89
37 39
37 42
37 45
37 49
37 51
37 52
37 54
37 55
37 57
37 58
37 59
37 60
37 61
37 62
37 63
37 65
37 66
37 67
37 68
37 70
37 71
37 72
37 73
37 74
37 75
37 77
37 78
37 79
37 80
37 81
37 82
37 84
37 85
37 86
37 87
37 88
37 89
38 40
38 41
38 42
38 45
38 47
38 48
38 49
38 50
38 51
38 52
38 53
38 54
38 55
38 57
38 59
38 60
38 61
38 63
38 64
38 65
38 66
38 68
38 69
38 70
38 71
38 72
38 73
38 75
38 76
38 79
38 80
38 81
38 82
38 83
38 85
38 87
38 89
39 40
39 41
39 42
39 44
39 45
39 46
39 48
39 49
39 50
39 51
39 54
39 57
39 58
39 59
39 61
39 63
39 64
39 65
39 66
39 68
39 69
39 70
39 71
39 73
39 74
39 77
39 78
39 80
39 81
39 83
39 84
39 87
39 88
40 41
40 42
40 44
40 46
40 47
40 48
40 49
40 52
40 53
40 55
40 56
40 57
40 61
40 62
40 63
40 66
40 68
40 70
40 71
40 72
40 73
40 74
40 76
40 77
40 79
40 80
40 81
40 83
40 84
40 86
40 87
40 88
40 89
41 42
41 43
41 44
41 45
41 49
41 52
41 53
41 54
41 55
41 57
41 60
41 61
41 62
41 64
41 66
41 67
41 68
41 70
41 71
41 72
41 73
41 74
41 75
41 77
41 78
41 79
41 80
41 82
41 83
41 84
41 85
41 86
41 88
42 43
42 44
42 45
42 46
42 47
42 48
42 50
42 51
42 52
42 54
42 55
42 56
42 64
42 67
42 68
42 69
42 70
42 74
42 75
42 76
42 77
42 78
42 79
42 81
42 86
42 87
42 89
43 44
43 45
43 46
43 47
43 48
43 49
43 50
43 51
43 52
43 56
43 57
43 58
43 59
43 60
43 62
43 65
43 66
43 67
43 68
43 71
43 74
43 76
43 80
43 82
43 84
43 86
43 87
43 88
43 89
44 45
44 47
44 48
44 51
44 52
44 53
44 54
44 55
44 56
44 58
44 59
44 62
44 63
44 64
44 66
44 68
44 69
44 70
44 71
44 72
44 74
44 75
44 76
44 78
44 79
44 80
44 81
44 83
44 84
44 86
44 88
44 89
45 47
45 49
45 50
45 51
45 53
45 54
45 55
45 56
45 57
45 58
45 59
45 60
45 61
45 62
45 63
45 64
45 65
45 67
45 68
45 69
45 71
45 72
45 74
45 75
45 76
45 77
45 78
45 79
45 80
45 82
45 83
45 85
45 86
45 87
45 89
46 47
46 48
46 49
46 51
46 52
46 56
46 57
46 58
46 59
46 60
46 62
46 63
46 64
46 65
46 66
46 67
46 70
46 71
46 72
46 73
46 74
46 75
46 76
46 77
46 80
46 83
46 84
46 87
46 88
47 51
47 52
47 54
47 56
47 57
47 58
47 62
47 64
47 65
47 66
47 69
47 70
47 71
47 72
47 74
47 75
47 76
47 77
47 79
47 84
47 85
47 86
47 87
47 89
48 49
48 50
48 51
48 54
48 55
48 56
48 58
48 59
48 60
48 61
48 65
48 66
48 68
48 71
48 72
48 73
48 75
48 76
48 77
48 78
48 79
48 80
48 81
48 82
48 83
48 84
48 85
48 87
48 88
48 89
49 51
49 52
49 54
49 56
49 57
49 59
49 60
49 61
49 63
49 64
49 65
49 68
49 70
49 72
49 73
49 74
49 75
49 76
49 77
49 78
49 79
49 80
49 81
49 82
49 84
49 85
49 86
49 87
49 88
49 89
50 51
50 55
50 56
50 57
50 58
50 59
50 60
50 62
50 64
50 65
50 66
50 67
50 68
50 69
50 70
50 71
50 72
50 73
50 74
50 75
50 77
50 79
50 80
50 81
50 82
50 85
50 87
50 88
51 52
51 53
51 54
51 55
51 56
51 57
51 58
51 59
51 60
51 63
51 64
51 65
51 66
51 69
51 71
51 74
51 75
51 76
51 77
51 78
51 79
51 80
51 81
51 82
51 83
51 89
52 53
52 54
52 55
52 58
52 59
52 60
52 65
52 66
52 67
52 70
52 71
52 74
52 75
52 76
52 77
52 79
52 80
52 82
52 84
52 86
52 87
52 88
52 89
53 54
53 55
53 57
53 58
53 59
53 62
53 64
53 66
53 67
53 68
53 71
53 72
53 73
53 74
53 75
53 76
53 77
53 78
53 80
53 81
53 82
53 84
53 85
53 86
53 87
54 55
54 56
54 57
54 58
54 59
54 60
54 61
54 62
54 63
54 64
54 65
54 67
54 68
54 69
54 70
54 71
54 72
54 73
54 74
54 75
54 76
54 77
54 79
54 80
54 81
54 82
54 83
54 84
54 85
54 86
54 87
54 89
55 56
55 59
55 61
55 62
55 64
55 65
55 66
55 67
55 69
55 70
55 71
55 72
55 73
55 74
55 75
55 76
55 82
55 83
55 84
55 85
55 89
56 59
56 60
56 61
56 62
56 65
56 67
56 68
56 69
56 70
56 71
56 72
56 73
56 77
56 78
56 80
56 81
56 82
56 85
56 86
56 87
57 58
57 59
57 60
57 61
57 62
57 63
57 64
57 67
57 69
57 70
57 72
57 73
57 74
57 75
57 76
57 77
57 79
57 80
57 83
57 84
57 85
57 86
57 87
57 88
58 59
58 61
58 63
58 64
58 66
58 68
58 69
58 70
58 71
58 72
58 73
58 74
58 75
58 76
58 78
58 79
58 80
58 81
58 82
58 83
58 85
58 87
58 88
59 61
59 62
59 64
59 65
59 66
59 67
59 69
59 70
59 71
59 73
59 74
59 75
59 76
59 77
59 78
59 79
59 81
59 82
59 84
59 88
59 89
60 61
60 62
60 63
60 65
60 66
60 69
60 71
60 72
60 73
60 75
60 76
60 78
60 80
60 81
60 82
60 83
60 84
60 87
60 88
61 65
61 67
61 68
61 69
61 71
61 72
61 73
61 74
61 75
61 76
61 77
61 78
61 79
61 81
61 82
61 84
61 85
61 87
61 88
62 63
62 64
62 65
62 66
62 67
62 68
62 69
62 70
62 71
62 74
62 76
62 77
62 78
62 79
62 81
62 82
62 83
62 84
62 85
62 86
63 65
63 66
63 67
63 68
63 69
63 70
63 71
63 72
63 73
63 74
63 75
63 76
63 77
63 78
63 79
63 80
63 82
63 84
63 86
63 87
63 89
64 66
64 67
64 69
64 70
64 72
64 73
64 76
64 78
64 79
64 80
64 81
64 83
64 86
64 87
64 89
65 66
65 69
65 70
65 75
65 76
65 78
65 79
65 80
65 81
65 83
65 86
65 87
65 88
66 67
66 68
66 69
66 70
66 72
66 73
66 74
66 76
66 78
66 80
66 81
66 82
66 83
66 84
66 85
66 87
66 89
67 68
67 69
67 70
67 71
67 73
67 74
67 75
67 76
67 77
67 78
67 79
67 80
67 81
67 82
67 83
67 84
67 85
67 86
67 87
67 88
67 89
68 69
68 70
68 71
68 73
68 74
68 76
68 77
68 78
68 79
68 80
68 83
68 84
68 85
68 87
68 88
68 89
69 70
69 71
69 73
69 74
69 75
69 76
69 79
69 80
69 81
69 83
69 85
69 86
69 87
69 88
70 71
70 72
70 74
70 76
70 77
70 78
70 79
70 82
70 84
70 86
70 87
70 88
70 89
71 72
71 73
71 75
71 76
71 79
71 81
71 82
71 84
71 85
71 86
71 88
71 89
72 76
72 78
72 79
72 80
72 81
72 82
72 83
72 84
72 86
72 88
72 89
73 74
73 76
73 77
73 78
73 79
73 80
73 82
73 83
73 86
73 87
73 88
73 89
74 76
74 77
74 80
74 81
74 83
74 84
74 85
74 87
74 88
74 89
75 76
75 77
75 78
75 79
75 80
75 81
75 82
75 83
75 84
75 85
75 87
75 88
75 89
76 77
76 78
76 79
76 80
76 81
76 85
76 87
76 89
77 78
77 79
77 80
77 81
77 82
77 84
77 85
77 87
77 88
78 79
78 80
78 82
78 83
78 84
78 85
78 86
78 87
78 88
79 80
79 81
79 83
79 84
79 86
79 87
79 88
79 89
80 82
80 84
80 86
80 87
80 88
80 89
81 82
81 83
81 84
81 87
81 88
81 89
82 83
82 84
82 85
82 86
82 87
82 88
82 89
83 85
83 86
83 87
83 88
84 85
84 86
84 87
84 89
85 86
85 87
85 88
85 89
86 87
86 89
87 88
87 89
88 89
20 70
3 23
71 84
2 38
31 50
51 52
39 43
44 67
1 58
6 19
60 86
40 68
22 42
37 65
18 29
5 61
77 88
49 85
74 79
4 26
24 81
10 36
27 53
72 78
16 63
13 57
54 62
69 76
15 64
14 80
47 48
11 21
46 73
30 33
32 82
17 45
9 75
35 66
34 83
8 89
28 56
0 59
7 55
25 41
12 87
